unsat
(:added-eqs                       1691061
 :arith-eq-adapter                3282
 :arith-bound-propagations-lp     1674
 :arith-branch                    1
 :arith-conflicts                 5299
 :arith-diseq                     18530
 :arith-fixed-eqs                 117597
 :arith-gcd-calls                 84
 :arith-grobner-calls             545
 :arith-grobner-conflicts         189
 :arith-horner-calls              163
 :arith-horner-conflicts          31
 :arith-horner-cross-nested-forms 35577
 :arith-lower                     425723
 :arith-make-feasible             109786
 :arith-max-columns               6981
 :arith-max-rows                  2671
 :arith-nla-add-bounds            337
 :arith-nla-lemmas                2252
 :arith-nla-propagate-bounds      2401
 :arith-nla-propagate-eq          104296
 :arith-nra-calls                 133
 :arith-offset-eqs                676563
 :arith-patches                   84
 :arith-patches-success           83
 :arith-upper                     654994
 :binary-propagations             1918671
 :cnf-encoding-aux-vars           84
 :conflicts                       1666
 :decisions                       1371966
 :del-clause                      2547
 :elim-unconstrained              1416
 :final-checks                    1401
 :max-memory                      139.64
 :memory                          100.63
 :minimized-lits                  650
 :mk-bool-var                     21266
 :mk-clause                       8058
 :mk-clause-binary                97027
 :nlsat-conflicts                 56083
 :nlsat-decisions                 783190
 :nlsat-propagations              3419486
 :nlsat-restarts                  4
 :nlsat-stages                    866643
 :num-allocs                      60763254223.00
 :num-checks                      2
 :propagations                    2190901
 :restarts                        13
 :rlimit-count                    37737873
 :sat-mk-clause-2ary              10772
 :sat-mk-clause-nary              16100
 :sat-mk-var                      7766
 :solve-eqs-elim-vars             696
 :solve-eqs-steps                 3684
 :time                            32.50
 :total-time                      32.54)
